18122
18213
18302
18377
18431
18480
18522
18543
18556
18562
18566
18570
18570
18570
18570
18570
18570
18571
18571
18571
18572
18573
18573
18574
18574
18574
18574
18575
18576
18576
18576
18576
18576
18576
18576
18576
18576
18576
18576
18576
18576
18576
18576
18576
18576
18576
18576
18576
18576
18576
18576
18576
18576
18576
18576
18576
18576
18576
18576
18576
18576
18576
18576
18576
18576
18576
18576
18576
18576
18576
18576
18576
18576
18576
18576
18576
18576
18576
18576
18576
18576
18576
18576
18576
18576
18576
18576
18576
18576
18576
18576
18576
18576
18576
18576
18576
18576
18576
18576
